54
52
52
48
50
44
44
58
58
66
66
66
54
50
54
70
70
68
68
62
50
38
38
38
38
42
54
48
36
36
36
36
28
28
32
40
52
52
50
46
46
42
42
34
34
22
22
22
22
22
22
22
34
34
34
50
50
46
46
46
34
34
34
34
34
46
46
52
52
52
54
54
54
48
48
48
68
72
60
64
60
56
56
54
54
58
56
48
48
48
36
36
36
36
36
46
44
44
48
38
38
38
42
42
40
44
44
44
36
44
44
44
40
28
36
40
42
42
38
38
38
34
32
34
34
38
40
34
42
42
42
42
46
42
46
46
46
44
48
48
52
50
50
50
38
38
38
38
38
38
38
38
46
46
46
46
46
42
46
46
46
46
46
38
36
36
44
44
46
38
38
34
38
38
38
38
38
38
40
40
40
40
50
50
50
50
50
38
38
38
34
34
34
34
34
34
34
34
34
30
30
30
30
30
30
30
30
24
24
24
24
24
24
24
24
24
24
24
24
24
24
24
24
24
30
26
22
22
22
22
24
24
24
18
18
22
22
22
18
18
18
18
18
18
16
18
32
32
32
32
32
32
38
38
38
46
46
48
48
42
42
42
40
40
40
40
40
32
32
34
38
38
38
38
38
38
40
34
24
24
24
32
32
24
24
24
24
24
24
24
24
24
24
24
24
24
24
24
26
26
26
26
26
26
24
24
24
24
22
22
22
22
22
22
22
22
22
22
22
26
26
26
26
26
26
26
26
26
26
26
26
26
26
26
26
26
26
34
34
34
36
36
42
42
42
42
42
42
40
40
40
40
34
34
36
36
36
40
40
40
40
38
28
38
18
18
18
18
18
18
18
18
18
18
18
18
18
18
18
18
18
14
14
14
14
14
14
14
14
14
14
14
14
14
14
14
14
14
14
14
14
14
14
14
14
14
14
14
14
14
14
14
14
16
16
16
16
16
16
16
16
16
16
16
16
16
16
16
16
16
16
16
14
14
14
14
14
14
14
14
14
14
14
14
14
14
14
14
14
14
14
14
14
14
14
14
14
14
14
14
14
14
14
14
14
14
16
16
16
16
16
16
16
16
16
16
16
16
16
16
16
16
16
16
16
14
14
14
14
14
14
14
14
14
14
14
14
14
14
14
14
14
14
14
14
14
14
14
14
14
14
14
14
14
14
14
14
14
14
14
14
14
14
14
14
14
14
14
14
14
14
14
14
14
14
14
14
14
14
14
14
14
14
14
14
14
14
18
18
18
18
18
18
18
18
18
18
18
18
18
18
18
18
18
18
18
18
18
18
18
18
18
18
18
18
18
18
18
18
18
18
18
18
18
18
18
18
18
18
18
18
18
18
18
18
18
18
18
18
18
18
18
18
18
18
18
14
14
14
14
14
14
14
14
14
14
14
14
14
14
14
14
14
14
14
14
14
14
14
14
14
14
14
14
14
14
14
14
14
14
14
14
14
14
14
14
14
14
14
14
14
14
14
14
14
14
14
14
14
14
14
14
14
14
14
14
14
14
14
14
14
14
16
16
16
16
16
16
16
16
16
16
16
16
16
16
16
16
16
16
16
16
16
16
16
16
16
16
16
16
16
16
16
16
16
16
16
16
16
16
16
16
16
16
16
16
16
16
16
16
16
16
16
16
16
16
16
14
14
14
14
14
14
14
14
14
14
14
14
14
14
14
14
14
14
14
14
14
14
14
14
14
14
14
14
14
14
14
14
14
14
14
14
14
14
14
14
14
14
14
14
14
14
14
14
14
14
14
14
14
14
14
14
14
14
14
14
14
14
14
14
14
14
14
14
14
14
14
14
14
14
14
14
14
14
14
14
14
14
14
14
14
14
14
14
14
14
14
14
14
14
14
14
14
14
14
14
14
14
14
14
14
14
14
14
14
14
14
14
14
14
14
14
14
14
14
14
14
14
14
14
14
14
14
14
14
14
14
14
14
14
14
14
14
14
14
14
14
14
14
14
14
14
14
14
14
14
14
14
14
14
14
14
14
14
14
14
14
14
14
14
14
14
14
14
14
16
16
16
16
16
16
16
16
16
16
16
16
16
16
16
16
16
16
16
16
16
16
16
16
16
16
16
16
16
16
16
16
16
16
16
16
16
16
16
16
16
18
18
18
18
18
16
16
16
16
16
16
16
16
16
16
16
16
16
16
16
16
16
16
16
16
16
16
16
16
16
16
16
14
14
14
14
14
14
14
14
14
14
14
14
14
14
14
14
14
14
14
14
14
14
14
14
14
14
14
14
14
14
14
